(set-logic HORN)
(declare-datatypes ((Nat_193 0)) (((zero_16 ) (succ_16 (p_44 Nat_193)))))
(declare-fun diseqNat_193 (Nat_193 Nat_193) Bool)
(declare-fun p_45 (Nat_193 Nat_193) Bool)
(declare-fun iszero_16 (Nat_193) Bool)
(declare-fun issucc_16 (Nat_193) Bool)
(assert (forall ((x_12170 Nat_193))
	(p_45 x_12170 (succ_16 x_12170))))
(assert (iszero_16 zero_16))
(assert (forall ((x_12172 Nat_193))
	(issucc_16 (succ_16 x_12172))))
(assert (forall ((x_12173 Nat_193))
	(diseqNat_193 zero_16 (succ_16 x_12173))))
(assert (forall ((x_12174 Nat_193))
	(diseqNat_193 (succ_16 x_12174) zero_16)))
(assert (forall ((x_12175 Nat_193) (x_12176 Nat_193))
	(=> (diseqNat_193 x_12175 x_12176)
	    (diseqNat_193 (succ_16 x_12175) (succ_16 x_12176)))))
(declare-fun addacc_2 (Nat_193 Nat_193 Nat_193 Nat_193) Bool)
(assert (forall ((x_12161 Nat_193) (x_12158 Nat_193) (y_502 Nat_193) (z_559 Nat_193))
	(=> (addacc_2 x_12161 x_12158 (succ_16 y_502) z_559)
	    (addacc_2 x_12161 (succ_16 x_12158) y_502 z_559))))
(assert (forall ((x_12163 Nat_193) (x_12159 Nat_193) (z_559 Nat_193))
	(=> (addacc_2 x_12163 zero_16 x_12159 (succ_16 z_559))
	    (addacc_2 x_12163 zero_16 (succ_16 x_12159) z_559))))
(assert (forall ((x_12165 Nat_193))
	(addacc_2 x_12165 zero_16 zero_16 x_12165)))
(assert (forall ((x_12166 Nat_193) (x_12167 Nat_193) (x_12160 Nat_193) (y_503 Nat_193) (z_560 Nat_193))
	(=>	(and true
			(diseqNat_193 x_12166 x_12167)
			(addacc_2 x_12166 x_12160 y_503 z_560)
			(addacc_2 x_12167 z_560 x_12160 y_503))
		false)))
(check-sat)
